\ LP format - for model browsing. Use MPS format to capture full model detail.
Minimize
  0 b_1[0,0] + 0 b_1_2[0,0] + 0 b_1_5[0,0] + 0 b_8[0,0] + 0 b_8_10[0,0]
Subject To
 R0: b = 1
 R1: x__0 - 10000 b_1_3[0,0] >= -9995
 R2: x__0 - 10000 b_1_3[0,0] <= 4.9999
 R3: - x__0 - 10000 b_1_4[0,0] >= -10009
 R4: - x__0 - 10000 b_1_4[0,0] <= -9.0001
 R5: - y__0 - 10000 b_1_6[0,0] >= -10001.9999
 R6: - y__0 - 10000 b_1_6[0,0] <= -2
 R7: z__0 - 10000 b_1_7[0,0] >= -9997.999900000001
 R8: z__0 - 10000 b_1_7[0,0] <= 2
 R9: - x__0 - 10000 b_8_9[0,0] >= -10003.9999
 R10: - x__0 - 10000 b_8_9[0,0] <= -4
 R11: y__0 - 10000 b_8_11[0,0] >= -9996
 R12: y__0 - 10000 b_8_11[0,0] <= 3.9999
 R13: - z__0 - 10000 b_8_12[0,0] >= -9999
 R14: - z__0 - 10000 b_8_12[0,0] <= 0.9999
Bounds
 -10000 <= x__0 <= 10000
 -10000 <= y__0 <= 10000
 -10000 <= z__0 <= 10000
Binaries
 b b_1[0,0] b_1_2[0,0] b_1_3[0,0] b_1_4[0,0] b_1_5[0,0] b_1_6[0,0]
 b_1_7[0,0] b_8[0,0] b_8_9[0,0] b_8_10[0,0] b_8_11[0,0] b_8_12[0,0]
General Constraints
 GC0: b_1_2[0,0] = AND ( b_1_3[0,0] , b_1_4[0,0] )
 GC1: b_1_5[0,0] = OR ( b_1_6[0,0] , b_1_7[0,0] )
 GC2: b_1[0,0] = AND ( b_1_2[0,0] , b_1_5[0,0] )
 GC3: b_8_10[0,0] = AND ( b_8_11[0,0] , b_8_12[0,0] )
 GC4: b_8[0,0] = OR ( b_8_9[0,0] , b_8_10[0,0] )
 GC5: b = AND ( b_1[0,0] , b_8[0,0] )
End
